(set-info :smt-lib-version 2.6)
(set-logic UFNIRA)
(set-info :source |
Generated by: Geoff Sutcliffe
Generated on: 2026-03-11
Generator: TPTPWorld
Application: Benchmarking automated theorem provers
Time limit: 120.0

These benchmarks are translations from the TPTP Library (Thousands of
Problems for Theorem Provers), see http://www.cs.miami.edu/~tptp/

The TPTP is maintained by Geoff Sutcliffe, and he contributed this
selection of benchmarks to SMT-LIB.  They were exported from the
v9.2.1 realease of TPTP.
|)
(set-info :category "industrial")
(set-info :status "unknown")
; SZS status Success
(declare-sort $$unsorted 0)
(declare-sort tptp.uni 0)
(declare-sort tptp.ty 0)
(declare-fun tptp.sort (tptp.ty tptp.uni) Bool)
(declare-fun tptp.witness (tptp.ty) tptp.uni)
(assert (forall ((A tptp.ty)) (tptp.sort A (tptp.witness A))))
(declare-fun tptp.int () tptp.ty)
(declare-fun tptp.real () tptp.ty)
(declare-sort tptp.bool 0)
(declare-fun tptp.bool1 () tptp.ty)
(declare-fun tptp.true () tptp.bool)
(declare-fun tptp.false () tptp.bool)
(declare-fun tptp.match_bool (tptp.ty tptp.bool tptp.uni tptp.uni) tptp.uni)
(assert (forall ((A tptp.ty) (X tptp.bool) (X1 tptp.uni) (X2 tptp.uni)) (tptp.sort A (tptp.match_bool A X X1 X2))))
(assert (forall ((A tptp.ty) (Z tptp.uni) (Z1 tptp.uni)) (=> (tptp.sort A Z) (= (tptp.match_bool A tptp.true Z Z1) Z))))
(assert (forall ((A tptp.ty) (Z tptp.uni) (Z1 tptp.uni)) (=> (tptp.sort A Z1) (= (tptp.match_bool A tptp.false Z Z1) Z1))))
(assert (not (= tptp.true tptp.false)))
(assert (forall ((U tptp.bool)) (or (= U tptp.true) (= U tptp.false))))
(declare-sort tptp.tuple0 0)
(declare-fun tptp.tuple01 () tptp.ty)
(declare-fun tptp.tuple02 () tptp.tuple0)
(assert (forall ((U tptp.tuple0)) (= U tptp.tuple02)))
(declare-fun tptp.qtmark () tptp.ty)
(assert (forall ((X Real) (Y Real) (Z Real)) (=> (not (= Z 0.0)) (= (/ (+ X Y) Z) (+ (/ X Z) (/ Y Z))))))
(assert (forall ((X Real) (Y Real) (Z Real)) (=> (not (= Z 0.0)) (= (/ (- X Y) Z) (- (/ X Z) (/ Y Z))))))
(assert (forall ((X Real) (Y Real)) (=> (not (= Y 0.0)) (= (/ (- X) Y) (- (/ X Y))))))
(assert (forall ((X Real) (Y Real) (Z Real)) (=> (not (= Z 0.0)) (= (/ (* X Y) Z) (* X (/ Y Z))))))
(assert (forall ((X Real) (Y Real) (Z Real)) (=> (and (not (= Y 0.0)) (not (= Z 0.0))) (= (/ (/ X Y) Z) (/ X (* Y Z))))))
(assert (forall ((X Real) (Y Real) (Z Real)) (=> (and (not (= Y 0.0)) (not (= Z 0.0))) (= (/ X (/ Y Z)) (/ (* X Z) Y)))))
(assert (forall ((X Real) (Y Real) (Z Real)) (=> (<= X Y) (=> (<= 0.0 Z) (<= (* X Z) (* Y Z))))))
(assert (forall ((X Int) (Y Int) (Z Int)) (=> (<= X Y) (=> (<= 0 Z) (<= (* X Z) (* Y Z))))))
(declare-fun tptp.min (Real Real) Real)
(declare-fun tptp.max (Real Real) Real)
(assert (forall ((X Real) (Y Real)) (let ((_let_1 (tptp.max X Y))) (and (<= X _let_1) (<= Y _let_1)))))
(assert (forall ((X Real) (Y Real)) (let ((_let_1 (tptp.max X Y))) (or (= _let_1 X) (= _let_1 Y)))))
(assert (forall ((X Real) (Y Real)) (let ((_let_1 (tptp.min X Y))) (and (<= _let_1 X) (<= _let_1 Y)))))
(assert (forall ((X Real) (Y Real)) (let ((_let_1 (tptp.min X Y))) (or (= _let_1 X) (= _let_1 Y)))))
(assert (not (forall ((R Real) (Eps Real) (N Int) (Eps0 Real)) (let ((_let_1 (tptp.max R 1.0))) (let ((_let_2 (/ _let_1 Eps0))) (let ((_let_3 (to_real N))) (let ((_let_4 (* _let_3 Eps0))) (let ((_let_5 (/ 1.0 Eps0))) (=> (and (<= 0.0 R) (< 0.0 Eps0) (<= 1 N) (= Eps _let_4)) (=> (not (and (< R Eps) (< 1.0 Eps))) (=> (<= _let_4 _let_1) (=> (< 0.0 _let_5) (=> (<= (* _let_4 _let_5) (* _let_1 _let_5)) (=> (<= (/ _let_4 Eps0) _let_2) (<= _let_3 _let_2)))))))))))))))
(check-sat)
(exit)
